
List of user-set options:

                                    Name   Value                used
                           compl_inf_tol = 1                     yes
                         constr_viol_tol = 1                     yes
                            dual_inf_tol = 1000                  yes
                           linear_solver = ma97                  yes
                              ma86_small = 1e-30                  no
                                  ma86_u = 0.0001                 no
                              ma97_order = best                  yes
                              ma97_small = 1e-30                 yes
                            ma97_switch1 = at_start              yes
                            ma97_switch2 = od_hd_reuse           yes
                                  ma97_u = 1e-06                 yes
                               ma97_umax = 0.5                   yes
                                max_iter = 1000                  yes
                    max_refinement_steps = 20                    yes
                    min_refinement_steps = 5                     yes
                                 mu_init = 1e-06                 yes
           mu_superlinear_decrease_power = 1.25                  yes
                   nlp_scaling_min_value = 1e-08                 yes
                        option_file_name = Preset_Case:_982_NCP.opt  yes
                             output_file = ./tmp/Preset_Case:_982_NCP.output  yes
                      print_user_options = yes                   yes
        required_infeasibility_reduction = 1                      no
                                     tol = 1e-08                 yes
                   warm_start_bound_frac = 1e-20                 yes
                   warm_start_bound_push = 1e-20                 yes
                   warm_start_init_point = yes                   yes
              warm_start_mult_bound_push = 1e-20                 yes
                warm_start_mult_init_max = 1e+40                 yes
             warm_start_slack_bound_frac = 1e-20                 yes
             warm_start_slack_bound_push = 1e-20                 yes

******************************************************************************
This program contains Ipopt, a library for large-scale nonlinear optimization.
 Ipopt is released as open source code under the Eclipse Public License (EPL).
         For more information visit http://projects.coin-or.org/Ipopt
******************************************************************************

This is Ipopt version 3.12.10, running with linear solver ma97.

Number of nonzeros in equality constraint Jacobian...:   117167
Number of nonzeros in inequality constraint Jacobian.:      213
Number of nonzeros in Lagrangian Hessian.............:    47513

Total number of variables............................:    29977
                     variables with only lower bounds:    11312
                variables with lower and upper bounds:    15135
                     variables with only upper bounds:        0
Total number of equality constraints.................:    29864
Total number of inequality constraints...............:       25
        inequality constraints with only lower bounds:        4
   inequality constraints with lower and upper bounds:        0
        inequality constraints with only upper bounds:       21

iter    objective    inf_pr   inf_du lg(mu)  ||d||  lg(rg) alpha_du alpha_pr  ls
   0 -1.8603095e-01 2.14e-01 2.00e+00  -6.0 0.00e+00    -  0.00e+00 0.00e+00   0
In iteration 0, 9 Slacks too small, adjusting variable bounds
   1 -1.8603095e-01 2.14e-01 4.47e+02  -6.0 1.18e+10    -  4.46e-14 3.26e-19h  1
   2 -1.8603086e-01 2.14e-01 4.47e+02  -6.0 6.22e+01    -  4.20e-07 3.84e-06f  1
   3 -1.8603085e-01 2.14e-01 4.48e+02  -6.0 2.77e+01    -  1.25e-02 1.08e-06h  2
   4 -1.8603000e-01 2.14e-01 4.49e+02  -6.0 7.01e+01    -  9.49e-04 3.71e-05h  1
   5 -1.8574995e-01 2.10e-01 4.49e+02  -6.0 3.40e+01    -  8.28e-02 1.94e-02h  1
   6 -1.8433633e-01 1.91e-01 4.01e+02  -6.0 4.23e+01    -  2.27e-02 8.77e-02h  1
   7r-1.8433633e-01 1.91e-01 9.99e+02  -0.7 0.00e+00    -  0.00e+00 2.60e-07R  6
   8r-1.8432160e-01 1.91e-01 1.88e+03  -0.7 2.28e+03    -  7.18e-06 1.38e-06f  1
   9 -1.8420613e-01 1.90e-01 5.57e+06  -6.0 2.97e+01    -  6.45e-02 8.21e-03h  1
iter    objective    inf_pr   inf_du lg(mu)  ||d||  lg(rg) alpha_du alpha_pr  ls
  10 -1.8311242e-01 1.75e-01 6.09e+07  -6.0 3.54e+01    -  8.21e-03 8.00e-02h  1
  11 -1.8302881e-01 1.73e-01 6.05e+07  -6.0 3.23e+01    -  6.11e-02 6.56e-03h  1
  12 -1.8170799e-01 1.56e-01 5.44e+07  -6.0 3.80e+01    -  5.32e-02 1.01e-01h  1
  13 -1.8068167e-01 1.41e-01 4.92e+07  -6.0 3.76e+01    -  2.03e-02 9.49e-02h  2
  14 -1.8017799e-01 1.30e-01 4.54e+07  -6.0 3.52e+01    -  7.92e-02 7.81e-02h  2
  15 -1.7966178e-01 1.16e-01 4.04e+07  -6.0 3.36e+01    -  5.93e-02 1.09e-01h  2
  16 -1.7947739e-01 1.09e-01 3.82e+07  -6.0 3.14e+01    -  9.03e-02 5.60e-02h  2
  17 -1.7938783e-01 1.05e-01 3.66e+07  -6.0 3.20e+01    -  5.70e-02 3.99e-02h  2
  18 -1.7936609e-01 9.78e-02 3.41e+07  -6.0 3.40e+01    -  2.36e-01 6.88e-02H  1
  19 -1.7945184e-01 9.28e-02 3.24e+07  -6.0 4.60e+01    -  6.83e-02 5.18e-02h  3
iter    objective    inf_pr   inf_du lg(mu)  ||d||  lg(rg) alpha_du alpha_pr  ls
  20 -1.7965645e-01 8.75e-02 3.05e+07  -6.0 4.81e+01    -  9.88e-02 5.68e-02h  3
  21 -1.7978442e-01 8.53e-02 2.97e+07  -6.0 5.26e+01    -  7.57e-02 2.54e-02h  4
  22 -1.7992050e-01 8.31e-02 2.90e+07  -6.0 5.31e+01    -  1.07e-01 2.53e-02h  4
  23 -1.8006751e-01 8.54e-02 2.81e+07  -6.0 5.40e+01    -  2.55e-01 2.92e-02h  4
  24 -1.8022862e-01 8.93e-02 2.72e+07  -6.0 5.92e+01    -  8.70e-02 3.27e-02h  4
  25 -1.8191058e-01 8.84e-01 1.78e+07  -6.0 5.87e+01    -  1.09e-01 3.46e-01h  1
  26 -1.8175370e-01 8.42e-01 1.70e+07  -6.0 5.86e+01    -  1.08e-03 4.66e-02h  1
  27 -1.8188719e-01 8.02e-01 1.62e+07  -6.0 7.59e+01    -  5.19e-03 4.47e-02h  3
  28 -1.8193138e-01 7.66e-01 1.55e+07  -6.0 8.31e+01    -  3.30e-02 4.09e-02h  3
  29 -1.8190333e-01 7.50e-01 1.52e+07  -6.0 9.44e+01    -  1.38e-01 2.02e-02h  4
iter    objective    inf_pr   inf_du lg(mu)  ||d||  lg(rg) alpha_du alpha_pr  ls
  30 -1.8189517e-01 7.49e-01 1.52e+07  -6.0 9.29e+01    -  4.94e-02 1.58e-03h  7
  31 -1.8188949e-01 7.48e-01 1.52e+07  -6.0 8.61e+01    -  1.45e-01 8.79e-04h  8
  32 -1.8188811e-01 7.48e-01 1.52e+07  -6.0 7.32e+01    -  1.03e-01 1.54e-04h 11
  33 -1.8188766e-01 7.48e-01 1.52e+07  -6.0 7.12e+01    -  2.32e-01 4.64e-05h 13
  34 -1.7882338e-01 5.15e-01 1.11e+07  -6.0 7.14e+01    -  1.16e-01 2.68e-01H  1
  35 -1.7623577e-01 3.61e-01 6.38e+06  -6.0 9.66e+01    -  3.43e-01 4.26e-01H  1
  36 -1.7243439e-01 6.67e-01 2.56e+06  -6.0 3.00e+01    -  6.60e-01 5.98e-01h  1
  37 -1.7110829e-01 4.75e-01 4.58e+05  -6.0 1.98e+01    -  1.55e-01 8.80e-01h  1
  38 -1.7345660e-01 1.18e-01 1.06e+06  -6.0 1.03e+01    -  4.59e-01 1.00e+00h  1
  39 -1.7446325e-01 9.06e-02 1.89e+06  -6.0 2.55e+01    -  7.01e-02 1.86e-01h  1
iter    objective    inf_pr   inf_du lg(mu)  ||d||  lg(rg) alpha_du alpha_pr  ls
  40r-1.7446325e-01 9.06e-02 1.00e+03  -1.5 0.00e+00    -  0.00e+00 3.22e-07R  3
  41r-1.7424965e-01 8.45e-02 1.00e+03  -1.5 4.22e+03    -  7.47e-05 6.79e-05f  1
  42 -1.7447126e-01 6.74e-03 6.52e+07  -6.0 4.86e-01    -  2.62e-01 9.20e-01h  1
  43 -1.7448869e-01 3.98e-03 5.14e+07  -6.0 7.37e-02    -  8.67e-01 4.09e-01h  1
  44 -1.7471098e-01 3.05e-04 2.54e+05  -6.0 8.58e-01    -  8.39e-01 1.00e+00h  1
  45 -1.7594944e-01 1.14e-02 1.12e+05  -6.0 3.60e+00    -  3.80e-01 1.00e+00h  1
  46 -1.7784882e-01 1.93e-02 7.10e+04  -6.0 6.26e+00    -  3.64e-01 1.00e+00h  1
  47 -1.8017769e-01 4.09e-02 2.53e+04  -6.0 8.30e+00    -  6.43e-01 1.00e+00h  1
  48 -1.8250729e-01 8.17e-02 3.54e+03  -6.0 2.25e+01    -  8.60e-01 5.54e-01h  1
  49 -1.8403723e-01 1.28e-01 1.68e+03  -6.0 1.01e+02    -  5.25e-01 9.36e-02h  1
iter    objective    inf_pr   inf_du lg(mu)  ||d||  lg(rg) alpha_du alpha_pr  ls
  50 -1.8481403e-01 1.37e-01 7.35e+02  -6.0 1.48e+02    -  5.63e-01 4.09e-02h  1
  51 -1.8568682e-01 1.13e-01 6.73e+02  -6.0 1.75e+03    -  8.35e-02 2.77e-02h  1
  52 -1.8746978e-01 1.27e-01 3.69e+02  -6.0 3.71e+02    -  4.52e-01 8.67e-02h  1
  53 -1.9482487e-01 4.61e+00 2.52e+02  -6.0 5.86e+02    -  3.17e-01 3.50e-01f  1
  54 -1.9481911e-01 3.93e+00 2.15e+02  -6.0 1.55e+00  -4.0 1.46e-01 1.47e-01h  1
  55 -1.9977601e-01 5.80e+00 1.08e+02  -6.0 1.32e+03    -  4.99e-01 2.24e-01h  1
  56 -2.0234004e-01 7.14e+00 1.06e+02  -6.0 1.23e+04    -  1.97e-02 3.69e-02h  1
  57 -2.0347730e-01 1.40e+00 1.06e+02  -6.0 5.92e+01  -4.5 3.63e-06 1.00e+00h  1
  58 -2.0351209e-01 8.98e-01 5.65e+01  -6.0 9.54e-01  -4.1 4.66e-01 3.61e-01h  1
  59 -2.0349924e-01 3.20e-03 4.84e+00  -6.0 3.71e-01  -3.6 1.00e+00 1.00e+00h  1
iter    objective    inf_pr   inf_du lg(mu)  ||d||  lg(rg) alpha_du alpha_pr  ls
  60 -2.0360895e-01 4.39e-03 1.91e+00  -6.0 5.78e-01  -4.1 6.59e-01 6.06e-01h  1
  61 -2.0374871e-01 6.55e-03 1.38e+00  -6.0 1.56e+00  -4.6 1.00e+00 2.77e-01f  1
  62 -2.0398607e-01 1.89e-02 1.62e+00  -6.0 3.43e+00  -5.1 5.39e-01 2.45e-01f  1
  63 -2.0433746e-01 7.62e-02 5.64e+00  -6.0 9.68e+00  -5.5 1.00e+00 2.02e-01h  1
  64 -2.0510487e-01 5.54e-01 5.90e+00  -6.0 2.62e+01  -6.0 1.00e+00 2.20e-01f  1
  65 -2.0682544e-01 5.71e+00 2.27e+01  -6.0 1.35e+02  -6.5 4.46e-01 1.61e-01h  1
  66 -2.1061388e-01 9.70e+00 1.24e+01  -6.0 3.36e+02  -7.0 4.21e-01 1.54e-01h  1
  67 -2.1269147e-01 1.38e+01 2.44e+02  -6.0 1.22e+02  -6.5 1.00e+00 1.84e-01h  1
  68 -2.1328812e-01 1.34e+01 1.99e+01  -6.0 4.26e+01  -6.1 9.09e-01 1.06e-01h  1
  69 -2.1328898e-01 1.21e+01 4.68e+01  -6.0 3.45e+01  -6.6 5.99e-01 1.01e-01h  1
iter    objective    inf_pr   inf_du lg(mu)  ||d||  lg(rg) alpha_du alpha_pr  ls
  70 -2.1366177e-01 4.06e+00 2.57e+01  -6.0 5.75e+01  -7.1 2.86e-02 6.60e-01h  1
  71 -2.1526647e-01 3.16e+00 1.04e+01  -6.0 2.76e+02  -7.5 1.00e+00 3.29e-01h  1
  72 -2.1573593e-01 3.05e+00 1.34e+01  -6.0 5.82e+02  -8.0 1.47e-01 5.05e-02h  1
  73 -2.1609635e-01 2.99e+00 4.83e+01  -6.0 1.10e+03  -8.5 2.66e-01 2.34e-02h  1
  74 -2.1880746e-01 2.59e+00 4.24e+01  -6.0 3.91e+02  -8.1 1.00e+00 4.13e-01h  1
  75 -2.1956898e-01 2.48e+00 5.08e+01  -6.0 9.54e+02  -8.5 1.09e-01 5.89e-02h  1
  76 -2.2080894e-01 2.16e+00 1.18e+02  -6.0 3.78e+02  -8.1 1.00e+00 2.09e-01h  1
  77 -2.2286591e-01 1.64e+00 3.25e+02  -6.0 8.38e+02  -8.6 5.65e-01 2.68e-01h  1
  78 -2.2340297e-01 1.36e+00 4.88e+02  -6.0 2.78e+02  -8.2 1.00e+00 1.84e-01h  1
  79 -2.2434279e-01 4.73e-01 5.90e+02  -6.0 1.23e+02  -7.7 6.04e-01 1.00e+00h  1
iter    objective    inf_pr   inf_du lg(mu)  ||d||  lg(rg) alpha_du alpha_pr  ls
  80 -2.2449293e-01 3.90e-01 6.04e+02  -6.0 2.64e+02  -8.2 4.53e-01 7.86e-02h  1
  81 -2.2513394e-01 2.50e-01 1.51e+02  -6.0 1.12e+02  -7.8 1.00e+00 8.80e-01f  1
  82 -2.2572788e-01 2.79e-01 7.50e+01  -6.0 3.80e+02  -8.3 2.57e-01 2.71e-01h  1
  83 -2.2621152e-01 3.44e-01 1.12e+04  -6.0 1.77e+02  -7.9 4.95e-02 4.55e-01h  1
  84 -2.2650443e-01 5.21e-01 1.49e+03  -6.0 7.81e+01  -7.4 1.00e+00 8.97e-01f  1
  85 -2.2675504e-01 3.67e-01 2.83e+00  -6.0 3.52e+01  -7.0 1.00e+00 1.00e+00h  1
  86 -2.2686419e-01 1.61e-01 2.81e-01  -6.0 1.67e+01  -6.6 1.00e+00 1.00e+00h  1
  87 -2.2751305e-01 7.61e-01 8.38e+00  -6.0 1.22e+02  -7.1 7.35e-01 7.64e-01h  1
  88 -2.2789774e-01 1.76e+00 1.48e+01  -6.0 5.42e+01  -7.5 1.00e+00 5.11e-01h  1
  89 -2.2814998e-01 1.49e+00 2.55e+01  -6.0 1.34e+02  -8.0 1.41e-01 9.03e-02h  1
iter    objective    inf_pr   inf_du lg(mu)  ||d||  lg(rg) alpha_du alpha_pr  ls
  90 -2.2818180e-01 1.46e+00 8.70e+02  -6.0 2.90e+02  -8.5 6.49e-03 1.49e-02h  1
  91 -2.2818072e-01 1.43e+00 7.68e+02  -6.0 2.29e+00  -3.5 8.60e-02 2.53e-02h  1
  92 -2.2818074e-01 1.43e+00 7.68e+02  -6.0 1.61e+00  -2.2 2.21e-02 3.92e-04h  1
  93 -2.2817747e-01 1.34e+00 7.10e+02  -6.0 1.91e+00  -2.7 5.68e-02 5.86e-02h  1
  94 -2.2815185e-01 1.11e+00 4.97e+02  -6.0 1.90e+00  -3.2 1.02e-01 1.76e-01h  1
  95 -2.2808315e-01 5.39e-01 1.71e+02  -6.0 1.83e+00  -3.6 6.10e-01 5.13e-01h  1
  96 -2.2806359e-01 2.67e-01 3.68e+01  -6.0 1.32e+00  -4.1 8.06e-01 5.03e-01h  1
  97 -2.2807517e-01 1.20e-01 4.76e+01  -6.0 1.15e+00  -4.6 1.00e+00 5.41e-01f  1
  98 -2.2810070e-01 7.82e-02 8.33e+01  -6.0 1.30e+00  -5.1 1.00e+00 3.45e-01f  1
  99 -2.2815780e-01 4.08e-03 2.38e+02  -6.0 2.04e+00  -5.6 1.00e+00 1.00e+00f  1
iter    objective    inf_pr   inf_du lg(mu)  ||d||  lg(rg) alpha_du alpha_pr  ls
 100 -2.2829749e-01 4.10e-02 5.43e+01  -6.0 6.15e+00  -6.0 5.55e-01 7.60e-01h  1
 101 -2.2876112e-01 2.90e-01 9.75e+02  -6.0 1.66e+01  -6.5 6.21e-01 1.00e+00f  1
 102 -2.2915225e-01 4.38e-01 3.59e+02  -6.0 3.63e+01  -7.0 6.74e-01 3.91e-01h  1
 103 -2.2963392e-01 9.19e-01 3.13e+02  -6.0 6.73e+01  -7.5 9.91e-01 2.53e-01f  1
 104 -2.2973197e-01 8.60e-01 3.22e+02  -6.0 1.16e+02  -7.9 1.00e+00 7.21e-02h  1
 105 -2.3089166e-01 8.05e-01 2.49e+02  -6.0 2.47e+02  -8.4 9.32e-02 5.68e-01h  1
 106 -2.3149632e-01 1.44e+00 1.78e+02  -6.0 7.67e+02  -8.9 2.94e-01 2.60e-01h  1
 107 -2.3182415e-01 2.34e+00 1.74e+02  -6.0 2.07e+04  -9.4 4.84e-02 1.29e-02h  1
 108 -2.3207103e-01 1.96e+00 7.24e+01  -6.0 7.22e+02  -8.9 8.44e-01 3.02e-01h  1
 109 -2.3281922e-01 1.85e+00 2.64e+01  -6.0 3.80e+02  -8.5 8.59e-01 6.64e-01h  1
iter    objective    inf_pr   inf_du lg(mu)  ||d||  lg(rg) alpha_du alpha_pr  ls
 110 -2.3295067e-01 1.82e+00 2.60e+01  -6.0 6.01e+03  -9.0 9.64e-03 1.61e-02h  1
 111 -2.3330728e-01 1.83e+00 3.86e+01  -6.0 7.15e+02  -8.6 6.06e-01 1.97e-01h  1
 112 -2.3392700e-01 6.81e-01 3.32e+01  -6.0 1.76e+02  -8.1 2.70e-01 9.27e-01h  1
 113 -2.3406864e-01 1.08e+00 8.55e+00  -6.0 1.02e+03  -8.6 1.02e-01 1.80e-01h  1
 114 -2.3409777e-01 1.08e+00 8.33e+01  -6.0 2.29e+03  -7.3 2.39e-02 9.29e-03h  1
 115 -2.3409043e-01 1.07e+00 1.22e+03  -6.0 8.47e+02  -7.8 1.02e-01 5.70e-03h  4
 116 -2.3444449e-01 1.84e+00 1.08e+03  -6.0 5.22e+02  -8.2 5.35e-02 3.29e-01h  1
 117 -2.3505759e-01 1.92e+00 5.44e+02  -6.0 2.09e+02  -8.7 2.60e-01 7.72e-01h  1
 118 -2.3575424e-01 2.79e+00 3.78e+02  -6.0 8.11e+02  -9.2 2.68e-01 2.76e-01h  1
 119 -2.3621168e-01 2.54e+00 5.40e+02  -6.0 1.99e+03  -9.7 2.06e-01 1.36e-01h  1
iter    objective    inf_pr   inf_du lg(mu)  ||d||  lg(rg) alpha_du alpha_pr  ls
 120 -2.3747965e-01 3.79e+00 7.62e+02  -6.0 3.49e+03 -10.2 2.43e-01 1.74e-01h  1
 121 -2.3809068e-01 4.24e+00 4.01e+02  -6.0 1.94e+03  -9.7 3.72e-02 1.72e-01h  1
 122 -2.3926440e-01 6.79e+00 2.18e+03  -6.0 2.91e+03 -10.2 7.58e-02 3.15e-01h  1
 123 -2.3926415e-01 6.79e+00 1.88e+04  -6.0 2.08e+03  -7.1 1.72e-03 2.75e-05h  1
 124 -2.3926504e-01 6.66e+00 2.67e+04  -6.0 1.08e+03  -7.5 1.51e-02 2.16e-02f  1
 125 -2.3956782e-01 6.56e+00 2.87e+03  -6.0 3.61e+03  -8.0 2.50e-03 3.34e-02h  1
 126 -2.3956112e-01 3.44e+00 9.54e+03  -6.0 5.67e+01  -7.6 7.92e-02 4.75e-01h  1
 127 -2.3966177e-01 3.08e+00 8.55e+03  -6.0 3.80e+02  -8.1 6.37e-03 1.06e-01h  1
 128 -2.3994406e-01 2.55e+00 1.13e+04  -6.0 7.90e+01  -7.6 3.21e-01 9.30e-01h  1
 129 -2.4007914e-01 2.10e+00 8.82e+03  -6.0 1.19e+02  -8.1 2.22e-01 1.55e-01h  1
iter    objective    inf_pr   inf_du lg(mu)  ||d||  lg(rg) alpha_du alpha_pr  ls
 130 -2.4014686e-01 2.03e+00 5.17e+03  -6.0 2.29e+02  -8.6 4.24e-01 3.14e-02h  1
 131 -2.4100733e-01 1.65e+00 8.04e+03  -6.0 1.03e+03  -9.1 3.64e-01 1.78e-01h  1
 132 -2.4125953e-01 1.55e+00 2.19e+04  -6.0 1.29e+03  -9.6 2.52e-01 6.10e-02h  1
 133 -2.4151360e-01 1.41e+00 2.44e+04  -6.0 6.24e+02  -9.1 7.71e-01 8.74e-02h  1
 134 -2.4202878e-01 1.18e+00 6.09e+05  -6.0 1.35e+03  -9.6 1.40e-02 1.58e-01h  1
 135 -2.4380997e-01 3.14e+00 4.78e+03  -6.0 4.89e+02  -9.2 4.63e-01 1.00e+00h  1
 136 -2.4387911e-01 1.81e+00 2.64e+03  -6.0 2.05e+02  -8.8 2.38e-01 4.39e-01h  1
 137 -2.4394905e-01 2.36e-01 8.06e+01  -6.0 8.34e+01  -8.3 7.03e-01 1.00e+00h  1
 138 -2.4405744e-01 2.27e-01 4.97e+01  -6.0 3.84e+02  -8.8 1.00e+00 2.23e-01h  1
 139 -2.4431260e-01 3.39e-01 3.38e+00  -6.0 1.19e+02  -8.4 1.00e+00 1.00e+00h  1
iter    objective    inf_pr   inf_du lg(mu)  ||d||  lg(rg) alpha_du alpha_pr  ls
 140 -2.4448731e-01 3.32e-01 6.47e+01  -6.0 4.98e+03  -8.9 7.18e-02 4.31e-02h  1
 141 -2.4449960e-01 2.78e-01 7.04e+02  -6.0 6.38e+01  -4.8 1.84e-02 1.62e-01h  1
 142 -2.4457093e-01 1.00e-03 3.11e-01  -6.0 2.04e+00  -5.3 1.00e+00 1.00e+00h  1
 143 -2.4457185e-01 2.42e-03 1.48e+00  -6.0 1.09e+00  -5.8 7.93e-01 1.00e+00h  1
 144 -2.4457446e-01 3.51e-02 3.93e-01  -6.0 4.66e+00  -6.3 9.50e-01 1.00e+00h  1
 145 -2.4459263e-01 1.59e-02 3.58e-02  -6.0 2.14e+00  -5.8 1.00e+00 1.00e+00h  1
 146 -2.4460744e-01 2.92e-02 6.94e-01  -6.0 8.73e+00  -6.3 6.14e-01 2.67e-01h  1
 147 -2.4465953e-01 1.99e-01 1.04e+01  -6.0 1.49e+01  -6.8 7.62e-01 1.00e+00f  1
 148 -2.4479935e-01 5.61e-01 3.04e+01  -6.0 1.04e+02  -7.3 1.83e-01 1.99e-01h  1
 149 -2.4506509e-01 6.04e-01 9.75e+01  -6.0 2.24e+01  -6.8 1.00e+00 1.00e+00h  1
iter    objective    inf_pr   inf_du lg(mu)  ||d||  lg(rg) alpha_du alpha_pr  ls
 150 -2.4533660e-01 9.57e-01 3.88e+02  -6.0 8.67e+01  -7.3 4.78e-01 2.19e-01h  1
 151 -2.4542891e-01 5.28e-01 2.56e+02  -6.0 4.13e+01  -7.8 2.50e-01 6.69e-01h  1
 152 -2.4582001e-01 8.54e+00 3.46e+02  -6.0 8.16e+01  -7.4 6.72e-01 5.15e-01h  1
 153 -2.4598233e-01 7.15e-01 1.11e+02  -6.0 5.36e+01  -7.8 1.00e+00 9.89e-01h  1
 154 -2.4632410e-01 3.12e+00 7.32e+01  -6.0 2.01e+02  -8.3 3.35e-01 2.46e-01h  1
 155 -2.4632779e-01 2.75e+00 8.03e+01  -6.0 9.99e-01  -4.3 2.18e-01 1.17e-01h  1
 156 -2.4637550e-01 5.56e-02 4.70e+01  -6.0 1.57e+00  -4.8 8.26e-01 1.00e+00h  1
 157 -2.4637271e-01 5.18e-03 1.74e+01  -6.0 3.43e-01  -5.2 1.00e+00 1.00e+00h  1
 158 -2.4639512e-01 1.38e-02 3.79e+00  -6.0 1.02e+00  -5.7 7.05e-01 8.72e-01H  1
 159 -2.4653208e-01 3.41e-01 3.68e+00  -6.0 4.73e+00  -6.2 1.00e+00 1.00e+00h  1
iter    objective    inf_pr   inf_du lg(mu)  ||d||  lg(rg) alpha_du alpha_pr  ls
 160 -2.4665228e-01 4.93e-01 5.58e+00  -6.0 1.17e+01  -6.7 3.59e-01 3.30e-01h  1
 161 -2.4722431e-01 4.57e+00 5.09e+01  -6.0 2.44e+01  -7.1 4.33e-01 7.17e-01h  1
 162 -2.4721771e-01 4.16e+00 5.53e+01  -6.0 3.78e+01  -7.6 1.10e-01 2.70e-01h  1
 163 -2.4767097e-01 4.64e+00 7.11e+01  -6.0 1.20e+02  -8.1 4.44e-01 2.86e-01f  1
 164 -2.4816187e-01 3.70e+00 4.70e+01  -6.0 4.21e+02  -8.6 1.26e-04 2.59e-01h  1
 165 -2.4848613e-01 3.04e+00 2.86e+02  -6.0 1.22e+03  -9.0 1.68e-01 1.95e-01h  1
 166 -2.4882843e-01 2.67e+00 2.91e+02  -6.0 1.53e+03  -9.5 1.68e-01 1.24e-01h  1
 167 -2.4902480e-01 2.30e+00 3.42e+03  -6.0 5.96e+02  -9.1 4.60e-01 1.38e-01h  1
 168 -2.4947419e-01 1.89e+00 8.15e+03  -6.0 1.61e+03  -9.6 6.72e-01 1.81e-01h  1
 169 -2.5048127e-01 2.90e+00 1.75e+03  -6.0 6.75e+02  -9.1 1.00e+00 8.82e-01h  1
iter    objective    inf_pr   inf_du lg(mu)  ||d||  lg(rg) alpha_du alpha_pr  ls
 170 -2.5161133e-01 1.47e+01 1.47e+06  -6.0 3.44e+03  -9.6 3.73e-03 2.39e-01h  1
 171 -2.5223584e-01 1.29e+01 1.15e+06  -6.0 1.20e+03  -9.2 2.19e-01 2.14e-01h  1
 172 -2.5312724e-01 4.09e+00 1.78e+05  -6.0 3.60e+02  -8.8 3.78e-01 8.45e-01h  1
 173 -2.5309068e-01 3.36e+00 1.47e+05  -6.0 2.34e+02  -6.5 9.15e-02 1.77e-01h  1
 174 -2.5318113e-01 1.74e+00 7.61e+04  -6.0 3.05e+01  -7.0 6.17e-01 4.82e-01h  1
 175 -2.5308901e-01 1.74e+00 7.59e+04  -6.0 7.03e+03  -7.5 1.44e-03 3.46e-03h  2
 176 -2.5327944e-01 1.21e-02 1.69e+02  -6.0 3.47e+00  -6.2 2.01e-01 1.00e+00h  1
 177 -2.5330986e-01 2.22e-02 5.59e+01  -6.0 5.23e+00  -6.6 1.00e+00 7.34e-01h  1
 178 -2.5336883e-01 2.42e-02 1.31e+00  -6.0 1.51e+01  -7.1 1.00e+00 1.00e+00f  1
 179 -2.5348548e-01 1.14e-01 9.08e+00  -6.0 4.58e+01  -7.6 1.00e+00 1.00e+00h  1
iter    objective    inf_pr   inf_du lg(mu)  ||d||  lg(rg) alpha_du alpha_pr  ls
 180 -2.5370646e-01 1.37e+00 1.05e+02  -6.0 1.22e+02  -8.1 6.46e-01 8.61e-01h  1
 181 -2.5378538e-01 4.08e+00 5.11e+02  -6.0 6.22e+01  -7.6 6.89e-02 4.62e-01f  1
 182 -2.5372485e-01 2.94e+00 3.70e+02  -6.0 3.00e+01  -7.2 3.07e-02 2.73e-01f  1
 183 -2.5420453e-01 2.70e+00 1.72e+02  -6.0 2.42e+01  -6.8 2.30e-01 5.41e-01H  1
 184 -2.5405178e-01 2.49e+00 1.40e+02  -6.0 4.17e+01  -7.3 1.19e-05 1.47e-01f  1
 185 -2.5418848e-01 2.68e+00 1.41e+02  -6.0 5.62e+01  -7.8 6.17e-02 7.75e-02f  2
 186 -2.5448523e-01 2.29e+00 5.36e+01  -6.0 1.46e+02  -8.2 6.30e-01 4.52e-01h  1
 187 -2.5533754e-01 3.29e+00 5.07e+01  -6.0 4.17e+02  -8.7 2.72e-01 9.31e-01h  1
 188 -2.5533492e-01 3.52e+00 3.35e+01  -6.0 1.63e+02  -8.3 3.33e-04 1.00e+00h  1
 189 -2.5546159e-01 8.63e-02 9.52e+01  -6.0 3.43e+00  -6.0 6.69e-01 1.00e+00h  1
iter    objective    inf_pr   inf_du lg(mu)  ||d||  lg(rg) alpha_du alpha_pr  ls
 190 -2.5559485e-01 2.99e-01 1.36e+01  -6.0 5.66e+00  -6.5 1.00e+00 1.00e+00h  1
 191 -2.5581120e-01 1.02e+00 2.81e+01  -6.0 9.71e+00  -7.0 1.00e+00 1.00e+00h  1
 192 -2.5591431e-01 2.02e-02 9.50e+00  -6.0 2.58e+01  -7.5 1.00e+00 1.00e+00h  1
 193 -2.5612304e-01 1.36e-01 2.50e+00  -6.0 7.75e+01  -8.0 1.00e+00 1.00e+00h  1
 194 -2.5673095e-01 1.28e+00 3.06e+00  -6.0 2.37e+02  -8.4 1.00e+00 1.00e+00h  1
 195 -2.5840133e-01 9.05e+00 2.29e+01  -6.0 7.36e+02  -8.9 4.59e-02 8.41e-01h  1
 196 -2.5862254e-01 8.68e+00 2.17e+01  -6.0 3.42e+03  -9.4 3.75e-02 4.23e-02h  1
 197 -2.5872740e-01 8.21e+00 4.23e+02  -6.0 4.53e+02  -9.0 3.86e-01 5.65e-02h  1
 198 -2.5898749e-01 6.66e+00 2.36e+03  -6.0 8.22e+02  -9.4 8.78e-01 1.89e-01h  1
 199 -2.5972432e-01 1.53e+00 7.97e+00  -6.0 3.48e+02  -9.0 9.12e-01 1.00e+00h  1
iter    objective    inf_pr   inf_du lg(mu)  ||d||  lg(rg) alpha_du alpha_pr  ls
 200 -2.5987624e-01 1.15e+00 1.24e+03  -6.0 5.63e+02  -9.5 1.26e-01 1.78e-01h  1
 201 -2.6017528e-01 2.03e-01 1.25e+03  -6.0 2.62e+02  -9.1 2.74e-02 1.00e+00f  1
 202 -2.6052649e-01 4.51e+00 4.61e+01  -6.0 5.30e+02  -9.5 3.84e-01 1.00e+00h  1
 203 -2.6054692e-01 5.59e+00 6.87e+01  -6.0 1.46e+04 -10.0 2.69e-02 1.83e-02h  1
 204 -2.6044505e-01 4.92e+00 5.57e+01  -6.0 2.91e+02  -8.7 2.62e-02 1.20e-01h  1
 205 -2.6034518e-01 1.69e+00 1.90e+02  -6.0 2.95e+01  -7.4 5.37e-01 6.56e-01h  1
 206 -2.6038331e-01 1.11e-01 7.86e+01  -6.0 1.72e+01  -7.8 2.08e-02 1.00e+00h  1
 207 -2.6038829e-01 4.35e-02 1.56e+00  -6.0 5.14e+01  -8.3 1.00e+00 9.92e-01h  1
 208 -2.6040416e-01 7.33e-02 3.22e+01  -6.0 1.90e+02  -8.8 6.29e-01 2.61e-01f  2
 209 -2.6037913e-01 6.82e+00 4.06e+01  -6.0 9.07e+02  -9.3 5.54e-01 7.03e-01h  1
iter    objective    inf_pr   inf_du lg(mu)  ||d||  lg(rg) alpha_du alpha_pr  ls
 210 -2.6042275e-01 1.85e+00 5.05e+01  -6.0 3.21e+02  -8.8 1.56e-01 1.00e+00h  1
 211 -2.6062575e-01 6.38e+00 6.25e+01  -6.0 8.68e+02  -9.3 3.35e-01 6.59e-01h  1
 212 -2.6059493e-01 5.04e+00 5.50e+01  -6.0 3.40e+02  -9.8 4.06e-06 2.22e-01f  1
 213 -2.6061193e-01 4.95e+00 5.29e+01  -6.0 2.03e+03 -10.3 4.15e-02 1.76e-02h  2
 214 -2.6057839e-01 4.90e+00 5.22e+01  -6.0 1.00e+03  -7.1 3.68e-02 9.82e-03h  1
 215 -2.6069908e-01 3.22e-01 8.77e+01  -6.0 1.18e+01  -7.6 6.70e-05 9.35e-01h  1
 216 -2.6066946e-01 1.30e-02 3.31e+01  -6.0 2.25e+01  -8.1 3.57e-01 1.00e+00f  1
 217 -2.6066637e-01 6.01e-02 2.81e-01  -6.0 5.75e+01  -8.6 1.00e+00 1.00e+00h  1
 218 -2.6066134e-01 1.07e-01 2.11e+00  -6.0 9.51e+01  -9.0 1.00e+00 7.49e-01h  1
 219 -2.6066701e-01 7.22e-01 2.93e+00  -6.0 1.83e+02  -9.5 1.00e+00 5.30e-01h  1
iter    objective    inf_pr   inf_du lg(mu)  ||d||  lg(rg) alpha_du alpha_pr  ls
 220 -2.6072014e-01 1.94e+00 5.84e-01  -6.0 4.94e+02 -10.0 1.00e+00 1.00e+00h  1
 221 -2.6073070e-01 4.13e-01 5.95e-02  -6.0 1.76e+02  -9.6 1.00e+00 1.00e+00h  1
 222 -2.6076309e-01 1.62e+00 6.08e-01  -6.0 4.50e+02 -10.1 1.00e+00 1.00e+00h  1
 223 -2.6077383e-01 2.88e+00 2.29e+01  -6.0 1.18e+03 -10.5 1.00e+00 2.94e-01h  1
 224 -2.6077325e-01 1.26e+01 8.04e+01  -6.0 5.96e+03    -  4.32e-01 1.45e-01h  1
 225 -2.6078249e-01 1.86e+01 1.40e+02  -6.0 2.71e+03    -  6.43e-03 3.02e-01h  1
 226 -2.6079555e-01 3.26e+01 1.60e+02  -6.0 1.67e+03  -8.3 7.31e-04 9.11e-01h  1
 227 -2.6068622e-01 1.30e+01 3.25e+03  -6.0 3.12e+01  -8.8 8.61e-02 6.01e-01h  1
 228 -2.6078633e-01 2.78e+00 7.33e+02  -6.0 9.00e+01  -9.3 1.00e+00 7.90e-01h  1
 229 -2.6078490e-01 5.65e+00 7.26e+02  -6.0 7.53e+03    -  2.15e-01 8.04e-02h  1
iter    objective    inf_pr   inf_du lg(mu)  ||d||  lg(rg) alpha_du alpha_pr  ls
 230 -2.6078094e-01 6.62e+00 6.97e+02  -6.0 1.87e+03    -  2.69e-03 2.80e-02H  1
 231 -2.6077296e-01 2.04e+01 5.88e+02  -6.0 4.35e+03    -  2.11e-01 1.75e-01H  1
 232 -2.6071492e-01 3.36e+01 1.86e+03  -6.0 1.59e+03    -  3.68e-01 1.00e+00h  1
 233 -2.6076462e-01 3.01e+01 1.25e+03  -6.0 1.76e+03  -9.7 3.71e-01 1.19e-01h  1
 234 -2.6076474e-01 1.91e+01 4.90e+02  -6.0 1.22e+03 -10.2 1.00e+00 5.43e-01h  1
 235 -2.6075798e-01 6.42e+01 6.08e+02  -6.0 2.24e+04    -  5.35e-02 8.65e-02h  1
 236 -2.6075283e-01 5.99e+01 1.60e+03  -6.0 2.12e+03    -  6.84e-01 7.11e-02h  1
 237 -2.6076283e-01 4.31e+01 1.44e+03  -6.0 1.19e+03    -  6.28e-01 2.79e-01h  1
 238 -2.6076129e-01 4.11e+01 1.36e+03  -6.0 3.89e+03    -  1.35e-03 4.65e-02H  1
 239 -2.6076173e-01 2.88e+01 8.69e+02  -6.0 2.94e+03    -  6.13e-02 3.01e-01H  1
iter    objective    inf_pr   inf_du lg(mu)  ||d||  lg(rg) alpha_du alpha_pr  ls
 240 -2.6073988e-01 7.62e+00 1.53e+01  -6.0 8.22e+02    -  9.51e-01 1.00e+00h  1
 241 -2.6074062e-01 6.06e+00 3.22e+01  -6.0 6.38e+02    -  1.00e+00 2.40e-01h  1
 242 -2.6074260e-01 1.31e+00 2.80e-01  -6.0 3.39e+02    -  1.00e+00 1.00e+00h  1
 243 -2.6074331e-01 1.04e+00 3.48e+00  -6.0 5.36e+02    -  1.00e+00 5.84e-01H  1
 244 -2.6074346e-01 2.07e-02 1.27e-03  -6.0 4.14e+01    -  1.00e+00 1.00e+00h  1
 245 -2.6074342e-01 7.02e-04 1.43e-05  -6.0 7.78e+00    -  1.00e+00 1.00e+00h  1
 246 -2.6074342e-01 2.86e-09 2.80e-10  -6.0 1.50e-02    -  1.00e+00 1.00e+00h  1
 247 -2.6122813e-01 1.39e+00 8.07e+01  -7.5 2.65e+03    -  5.02e-01 2.19e-01f  1
 248 -2.6141738e-01 3.76e+00 5.86e+01  -7.5 3.37e+03    -  3.06e-02 1.19e-01h  1
 249 -2.6146098e-01 3.53e+00 8.49e+01  -7.5 2.31e+02  -8.9 2.77e-01 6.01e-02h  1
iter    objective    inf_pr   inf_du lg(mu)  ||d||  lg(rg) alpha_du alpha_pr  ls
 250 -2.6188680e-01 1.27e+01 4.70e+01  -7.5 2.54e+03    -  6.89e-04 3.70e-01h  1
 251 -2.6204102e-01 9.12e+00 7.16e+01  -7.5 1.85e+03    -  5.10e-01 2.84e-01h  1
 252 -2.6205209e-01 9.00e+00 9.77e+01  -7.5 3.19e+03    -  3.42e-01 2.64e-02h  1
 253 -2.6235095e-01 3.06e+00 3.71e+01  -7.5 1.70e+03    -  5.73e-02 7.48e-01h  1
 254 -2.6236168e-01 2.04e+00 1.61e+01  -7.5 6.60e+02    -  9.70e-01 3.37e-01h  1
 255 -2.6237523e-01 5.98e-01 4.66e+00  -7.5 4.24e+01  -9.4 1.00e+00 7.07e-01h  1
 256 -2.6242187e-01 2.56e+00 7.35e-01  -7.5 7.56e+02    -  3.36e-01 8.87e-01h  1
 257 -2.6242056e-01 1.67e+00 4.34e-01  -7.5 1.57e+02  -9.8 5.14e-02 3.55e-01h  1
 258 -2.6240962e-01 4.65e-02 2.09e-01  -7.5 5.06e+01 -10.3 8.26e-01 1.00e+00h  1
 259 -2.6241400e-01 7.11e-02 2.71e-01  -7.5 1.06e+02 -10.8 1.00e+00 4.77e-01h  1
iter    objective    inf_pr   inf_du lg(mu)  ||d||  lg(rg) alpha_du alpha_pr  ls
 260 -2.6241351e-01 7.96e-02 2.31e-03  -7.5 7.41e+01 -11.3 1.00e+00 1.00e+00h  1
 261 -2.6241394e-01 7.96e-01 8.88e-04  -7.5 2.60e+02 -11.7 1.00e+00 1.00e+00h  1
 262 -2.6241401e-01 1.42e+00 1.10e-01  -7.5 5.88e+02    -  7.24e-02 5.00e-01h  2
 263 -2.6241410e-01 2.27e+00 2.05e-01  -7.5 3.39e+02 -11.3 2.45e-01 1.00e+00h  1
 264 -2.6241412e-01 3.26e-02 4.46e-05  -7.5 5.05e+01 -10.9 1.00e+00 1.00e+00h  1
 265 -2.6241421e-01 1.57e+00 1.78e-01  -7.5 2.85e+03    -  2.61e-01 1.25e-01h  4
 266 -2.6241424e-01 1.36e-01 1.80e-04  -7.5 1.04e+02 -11.4 1.00e+00 1.00e+00h  1
 267 -2.6241434e-01 1.29e+00 2.06e-03  -7.5 3.24e+02 -11.8 1.00e+00 1.00e+00h  1
 268 -2.6241478e-01 3.04e+00 3.88e-02  -7.5 1.13e+03 -12.3 1.00e+00 1.00e+00H  1
 269 -2.6241491e-01 4.21e+00 1.24e+00  -7.5 5.13e+03 -12.8 5.51e-01 6.30e-02h  4
iter    objective    inf_pr   inf_du lg(mu)  ||d||  lg(rg) alpha_du alpha_pr  ls
 270 -2.6241497e-01 4.43e+00 3.22e+00  -7.5 6.00e+03    -  1.00e+00 2.62e-02h  5
 271 -2.6241531e-01 1.66e+00 1.09e-02  -7.5 6.57e+02    -  1.00e+00 1.00e+00H  1
 272 -2.6241546e-01 2.89e+00 1.28e+00  -7.5 2.46e+04    -  8.96e-02 1.23e-02h  4
 273 -2.6241608e-01 2.15e+01 9.74e-01  -7.5 2.97e+03    -  1.00e+00 4.04e-01h  2
 274 -2.6241609e-01 6.12e-01 1.89e-03  -7.5 8.24e+01    -  1.00e+00 1.00e+00h  1
 275 -2.6241607e-01 5.74e-01 1.64e-01  -7.5 2.62e+02    -  1.00e+00 1.71e-01h  2
 276 -2.6241601e-01 3.94e-01 7.40e-02  -7.5 2.11e+02    -  1.00e+00 5.00e-01h  2
 277 -2.6241594e-01 2.06e-01 3.93e-03  -7.5 1.20e+02    -  4.76e-01 1.00e+00h  1
 278 -2.6241632e-01 6.45e+00 1.56e-02  -7.5 6.73e+02    -  1.00e+00 1.00e+00h  1
 279 -2.6241621e-01 4.48e+00 8.75e-03  -7.5 4.78e+02    -  3.90e-01 3.77e-01h  2
iter    objective    inf_pr   inf_du lg(mu)  ||d||  lg(rg) alpha_du alpha_pr  ls
 280 -2.6241654e-01 8.14e+00 1.45e-01  -7.5 3.05e+03    -  1.03e-01 1.81e-01h  3
 281 -2.6241692e-01 5.58e+00 2.00e-02  -7.5 6.04e+02 -11.5 1.00e+00 1.00e+00h  1
 282 -2.6241721e-01 3.22e+00 9.74e-03  -7.5 4.54e+02    -  1.00e+00 1.00e+00h  1
 283 -2.6241727e-01 1.51e-01 6.51e-04  -7.5 9.50e+01    -  1.00e+00 1.00e+00h  1
 284 -2.6241727e-01 7.89e-05 3.80e-07  -7.5 2.09e+00    -  1.00e+00 1.00e+00h  1
 285 -2.6241727e-01 2.84e-10 4.54e-13  -7.5 4.23e-04    -  1.00e+00 1.00e+00h  1
 286 -2.6241977e-01 2.99e+00 2.45e+00  -9.0 1.70e+03    -  5.24e-01 2.58e-01h  1
 287 -2.6242185e-01 6.18e+01 1.29e+00  -9.0 5.71e+03    -  2.68e-01 3.41e-01h  1
 288 -2.6242274e-01 4.38e+01 5.94e-01  -9.0 1.56e+03    -  3.78e-01 4.23e-01h  1
 289 -2.6242315e-01 3.66e+01 3.73e-01  -9.0 1.85e+03    -  2.54e-01 2.81e-01h  1
iter    objective    inf_pr   inf_du lg(mu)  ||d||  lg(rg) alpha_du alpha_pr  ls
 290 -2.6242423e-01 1.00e+02 1.39e+01  -9.0 4.56e+03    -  3.28e-02 6.49e-01h  1
 291 -2.6242529e-01 4.83e+01 3.88e+01  -9.0 1.82e+03    -  9.40e-04 1.00e+00h  1
 292 -2.6242551e-01 9.27e+00 7.58e+00  -9.0 7.77e+02    -  1.15e-01 1.00e+00h  1
 293 -2.6242585e-01 1.79e+01 7.64e-01  -9.0 1.12e+03    -  4.28e-01 1.00e+00h  1
 294 -2.6242597e-01 8.59e+00 1.77e-01  -9.0 6.71e+02    -  7.60e-01 9.19e-01h  1
 295 -2.6242598e-01 8.58e+00 1.83e-01  -9.0 8.06e+03    -  2.03e-01 5.20e-03h  5
 296 -2.6242601e-01 8.55e+00 1.24e-01  -9.0 2.23e+03    -  9.12e-01 7.01e-02h  3
 297 -2.6242610e-01 8.75e+00 4.65e-02  -9.0 1.19e+03    -  9.92e-01 3.57e-01H  1
 298 -2.6242604e-01 1.42e+00 5.27e-02  -9.0 3.11e+02    -  4.77e-01 1.00e+00h  1
 299 -2.6242637e-01 3.60e+01 4.24e-02  -9.0 2.00e+03    -  9.90e-02 7.87e-01h  1
iter    objective    inf_pr   inf_du lg(mu)  ||d||  lg(rg) alpha_du alpha_pr  ls
 300 -2.6242632e-01 2.80e+01 3.46e-02  -9.0 1.06e+03    -  1.80e-01 2.50e-01h  3
 301 -2.6242634e-01 2.81e+01 3.29e-02  -9.0 3.26e+04    -  5.04e-02 2.97e-03h  5
 302 -2.6242638e-01 2.83e+01 4.31e-02  -9.0 1.50e+04    -  1.02e-01 1.29e-02h  4
 303 -2.6242646e-01 1.65e+00 2.81e-02  -9.0 2.98e+02 -11.9 2.66e-01 1.00e+00h  1
 304 -2.6242699e-01 5.06e+01 1.59e-02  -9.0 2.80e+03    -  5.39e-01 8.90e-01H  1
 305 -2.6242678e-01 1.65e+01 3.43e-03  -9.0 1.01e+03 -12.4 1.00e+00 1.00e+00h  1
 306 -2.6242682e-01 1.57e+01 2.12e-01  -9.0 2.24e+03    -  2.75e-01 1.00e-01h  4
 307 -2.6242702e-01 1.89e+01 7.66e-03  -9.0 9.46e+02 -12.9 1.00e+00 1.00e+00H  1
 308 -2.6242703e-01 1.85e+01 1.78e-01  -9.0 3.12e+03    -  7.56e-02 2.91e-02h  5
 309 -2.6242703e-01 1.85e+01 1.60e+00  -9.0 6.83e+03    -  9.62e-02 3.01e-03h  7
Error in an AMPL evaluation. Run with "halt_on_ampl_error yes" to see details.
Warning: Cutting back alpha due to evaluation error
iter    objective    inf_pr   inf_du lg(mu)  ||d||  lg(rg) alpha_du alpha_pr  ls
 310 -2.6242703e-01 1.85e+01 1.86e+00  -9.0 1.84e+04    -  1.33e-02 1.30e-03h  7
Error in an AMPL evaluation. Run with "halt_on_ampl_error yes" to see details.
Warning: Cutting back alpha due to evaluation error
 311 -2.6242703e-01 1.85e+01 4.21e+00  -9.0 6.64e+04    -  2.14e-02 9.01e-05h  9
Error in an AMPL evaluation. Run with "halt_on_ampl_error yes" to see details.
Warning: Cutting back alpha due to evaluation error
 312 -2.6242703e-01 1.80e+01 2.51e+00  -9.0 1.71e+03 -13.4 1.00e+00 2.80e-02h  6
Error in an AMPL evaluation. Run with "halt_on_ampl_error yes" to see details.
Warning: SOC step rejected due to evaluation error
 313 -2.6242702e-01 1.38e+01 2.97e+00  -9.0 1.28e+03    -  7.02e-02 2.50e-01h  3
 314 -2.6242703e-01 1.35e+01 3.83e+00  -9.0 2.63e+03    -  2.74e-01 3.62e-02h  5
 315 -2.6242704e-01 1.22e+01 1.27e+00  -9.0 1.31e+03    -  1.00e+00 1.25e-01h  4
 316 -2.6242705e-01 1.19e+01 1.33e+00  -9.0 2.14e+03    -  1.21e-01 4.59e-02h  5
 317 -2.6242705e-01 1.18e+01 3.75e+00  -9.0 2.38e+03 -12.9 1.00e+00 9.99e-03h  7
 318 -2.6242718e-01 5.19e+01 1.39e-01  -9.0 1.68e+03    -  3.47e-02 9.81e-01w  1
 319 -2.6242741e-01 1.90e+01 4.91e+01  -9.0 9.13e+02    -  1.26e-01 1.00e+00h  1
iter    objective    inf_pr   inf_du lg(mu)  ||d||  lg(rg) alpha_du alpha_pr  ls
 320 -2.6242722e-01 6.24e-01 1.10e+00  -9.0 1.50e+02 -12.5 7.68e-01 1.00e+00h  1
 321 -2.6242729e-01 1.95e+00 3.51e-04  -9.0 2.97e+02    -  1.00e+00 1.00e+00h  1
 322 -2.6242730e-01 1.68e-01 6.00e-06  -9.0 8.46e+01    -  1.00e+00 1.00e+00h  1
 323 -2.6242730e-01 9.36e-05 1.52e-08  -9.0 2.21e+00    -  1.00e+00 1.00e+00h  1
 324 -2.6242730e-01 3.38e-10 1.27e-13  -9.0 3.84e-03    -  1.00e+00 1.00e+00h  1

Number of Iterations....: 324

                                   (scaled)                 (unscaled)
Objective...............:  -2.6242729606558191e-01   -2.6242729606558191e-01
Dual infeasibility......:   1.2715308390468581e-13    1.2715308390468581e-13
Constraint violation....:   2.8262901817076996e-10    3.3833202905952930e-10
Complementarity.........:   9.0909092274669559e-10    9.0909092274669559e-10
Overall NLP error.......:   9.0909092274669559e-10    9.0909092274669559e-10


Number of objective function evaluations             = 589
Number of objective gradient evaluations             = 325
Number of equality constraint evaluations            = 593
Number of inequality constraint evaluations          = 590
Number of equality constraint Jacobian evaluations   = 327
Number of inequality constraint Jacobian evaluations = 327
Number of Lagrangian Hessian evaluations             = 324
Total CPU secs in IPOPT (w/o function evaluations)   =    704.982
Total CPU secs in NLP function evaluations           =     11.280

EXIT: Optimal Solution Found.
